(set-logic HORN)

(declare-fun |ULTIMATE.start_L116| ( Int Int Int Int Int Int Int Int Int Int Int Int Int Int Int Int Int Bool Int Int Int Int Int Int Bool ) Bool)
(declare-fun |ULTIMATE.start_L16| ( Int Int Int Int Int Int Int Int Int Int Int Int Int Int Int Int Int Bool Int Int Int Int Int Int Bool ) Bool)
(declare-fun |ULTIMATE.start_L81| ( Int Int Int Int Int Int Int Int Int Int Int Int Int Int Int Int Int Bool Int Int Int Int Int Int Bool ) Bool)
(declare-fun |ULTIMATE.start_L44| ( Int Int Int Int Int Int Int Int Int Int Int Int Int Int Int Int Int Bool Int Int Int Int Int Int Bool ) Bool)
(declare-fun |ULTIMATE.start_L76-4| ( Int Int Int Int Int Int Int Int Int Int Int Int Int Int Int Int Int Bool Int Int Int Int Int Int Bool ) Bool)
(declare-fun |ULTIMATE.start_L34| ( Int Int Int Int Int Int Int Int Int Int Int Int Int Int Int Int Int Bool Int Int Int Int Int Int Bool ) Bool)
(declare-fun |ULTIMATE.start_L52| ( Int Int Int Int Int Int Int Int Int Int Int Int Int Int Int Int Int Bool Int Int Int Int Int Int Bool ) Bool)
(declare-fun |ULTIMATE.start_L76-3| ( Int Int Int Int Int Int Int Int Int Int Int Int Int Int Int Int Int Bool Int Int Int Int Int Int Bool ) Bool)
(declare-fun |ULTIMATE.start_L70| ( Int Int Int Int Int Int Int Int Int Int Int Int Int Int Int Int Int Bool Int Int Int Int Int Int Bool ) Bool)
(declare-fun |ULTIMATE.start_L105| ( Int Int Int Int Int Int Int Int Int Int Int Int Int Int Int Int Int Bool Int Int Int Int Int Int Bool ) Bool)
(declare-fun |ULTIMATE.start_L96| ( Int Int Int Int Int Int Int Int Int Int Int Int Int Int Int Int Int Bool Int Int Int Int Int Int Bool ) Bool)
(declare-fun |ULTIMATE.start_L80| ( Int Int Int Int Int Int Int Int Int Int Int Int Int Int Int Int Int Bool Int Int Int Int Int Int Bool ) Bool)
(declare-fun |ULTIMATE.start_L97| ( Int Int Int Int Int Int Int Int Int Int Int Int Int Int Int Int Int Bool Int Int Int Int Int Int Bool ) Bool)
(declare-fun |ULTIMATE.start_L14-2| ( Int Int Int Int Int Int Int Int Int Int Int Int Int Int Int Int Int Bool Int Int Int Int Int Int Bool ) Bool)
(declare-fun |ULTIMATE.start_L57| ( Int Int Int Int Int Int Int Int Int Int Int Int Int Int Int Int Int Bool Int Int Int Int Int Int Bool ) Bool)
(declare-fun |ULTIMATE.start_ULTIMATE.startENTRY| ( Int Int Int Int Int Int Int Int Int Int Int Int Int Int Int Int Int Bool Int Int Int Int Int Int Bool ) Bool)
(declare-fun |ULTIMATE.start_L104| ( Int Int Int Int Int Int Int Int Int Int Int Int Int Int Int Int Int Bool Int Int Int Int Int Int Bool ) Bool)
(declare-fun |ULTIMATE.start_L62| ( Int Int Int Int Int Int Int Int Int Int Int Int Int Int Int Int Int Bool Int Int Int Int Int Int Bool ) Bool)
(declare-fun |ULTIMATE.start_L3| ( Int Int Int Int Int Int Int Int Int Int Int Int Int Int Int Int Int Bool Int Int Int Int Int Int Bool ) Bool)
(declare-fun |ULTIMATE.start_L48| ( Int Int Int Int Int Int Int Int Int Int Int Int Int Int Int Int Int Bool Int Int Int Int Int Int Bool ) Bool)
(declare-fun |ULTIMATE.start_L3-2| ( Int Int Int Int Int Int Int Int Int Int Int Int Int Int Int Int Int Bool Int Int Int Int Int Int Bool ) Bool)
(declare-fun |ULTIMATE.start_L-1| ( Int Int Int Int Int Int Int Int Int Int Int Int Int Int Int Int Int Bool Int Int Int Int Int Int Bool ) Bool)
(declare-fun |ULTIMATE.start_L4-1| ( Int Int Int Int Int Int Int Int Int Int Int Int Int Int Int Int Int Bool Int Int Int Int Int Int Bool ) Bool)
(declare-fun |ULTIMATE.start_L4-3| ( Int Int Int Int Int Int Int Int Int Int Int Int Int Int Int Int Int Bool Int Int Int Int Int Int Bool ) Bool)
(declare-fun |ULTIMATE.start_L4| ( Int Int Int Int Int Int Int Int Int Int Int Int Int Int Int Int Int Bool Int Int Int Int Int Int Bool ) Bool)
(declare-fun |ULTIMATE.start_L78| ( Int Int Int Int Int Int Int Int Int Int Int Int Int Int Int Int Int Bool Int Int Int Int Int Int Bool ) Bool)
(declare-fun |ULTIMATE.start_L14-1| ( Int Int Int Int Int Int Int Int Int Int Int Int Int Int Int Int Int Bool Int Int Int Int Int Int Bool ) Bool)
(declare-fun |ULTIMATE.start_L89| ( Int Int Int Int Int Int Int Int Int Int Int Int Int Int Int Int Int Bool Int Int Int Int Int Int Bool ) Bool)
(declare-fun |ULTIMATE.start_L14| ( Int Int Int Int Int Int Int Int Int Int Int Int Int Int Int Int Int Bool Int Int Int Int Int Int Bool ) Bool)
(declare-fun |ULTIMATE.start_ULTIMATE.startEXIT| ( Int Int Int Int Int Int Int Int Int Int Int Int Int Int Int Int Int Bool Int Int Int Int Int Int Bool ) Bool)
(declare-fun |ULTIMATE.start_ULTIMATE.startFINAL| ( Int Int Int Int Int Int Int Int Int Int Int Int Int Int Int Int Int Bool Int Int Int Int Int Int Bool ) Bool)
(declare-fun |ULTIMATE.start_L16-2| ( Int Int Int Int Int Int Int Int Int Int Int Int Int Int Int Int Int Bool Int Int Int Int Int Int Bool ) Bool)
(declare-fun |ULTIMATE.start_L3-3| ( Int Int Int Int Int Int Int Int Int Int Int Int Int Int Int Int Int Bool Int Int Int Int Int Int Bool ) Bool)
(declare-fun |ULTIMATE.start_L20| ( Int Int Int Int Int Int Int Int Int Int Int Int Int Int Int Int Int Bool Int Int Int Int Int Int Bool ) Bool)
(declare-fun |ULTIMATE.start_L88| ( Int Int Int Int Int Int Int Int Int Int Int Int Int Int Int Int Int Bool Int Int Int Int Int Int Bool ) Bool)
(declare-fun |ULTIMATE.start_L4-4| ( Int Int Int Int Int Int Int Int Int Int Int Int Int Int Int Int Int Bool Int Int Int Int Int Int Bool ) Bool)
(declare-fun |ULTIMATE.start_L3-1| ( Int Int Int Int Int Int Int Int Int Int Int Int Int Int Int Int Int Bool Int Int Int Int Int Int Bool ) Bool)
(declare-fun |ULTIMATE.start_L4-2| ( Int Int Int Int Int Int Int Int Int Int Int Int Int Int Int Int Int Bool Int Int Int Int Int Int Bool ) Bool)
(declare-fun |ULTIMATE.start_L76-1| ( Int Int Int Int Int Int Int Int Int Int Int Int Int Int Int Int Int Bool Int Int Int Int Int Int Bool ) Bool)
(declare-fun |ULTIMATE.start_L3-4| ( Int Int Int Int Int Int Int Int Int Int Int Int Int Int Int Int Int Bool Int Int Int Int Int Int Bool ) Bool)
(declare-fun |ULTIMATE.start_L112| ( Int Int Int Int Int Int Int Int Int Int Int Int Int Int Int Int Int Bool Int Int Int Int Int Int Bool ) Bool)

(assert
  (forall ( (A Int) (B Int) (C Int) (D Int) (E Int) (F Int) (G Int) (H Int) (I Int) (J Int) (K Int) (L Int) (M Int) (N Int) (O Int) (P Int) (Q Int) (R Bool) (S Int) (T Int) (U Int) (V Int) (W Int) (X Int) (Y Bool) (Z Int) (A1 Int) ) 
    (=>
      (and
        (ULTIMATE.start_ULTIMATE.startENTRY
  Z
  B
  A1
  D
  E
  F
  G
  H
  I
  J
  K
  L
  M
  N
  O
  P
  Q
  R
  S
  T
  U
  V
  W
  X
  Y)
        (or Y (and (= A 0) (= C 1)))
      )
      (ULTIMATE.start_L-1 A B C D E F G H I J K L M N O P Q R S T U V W X Y)
    )
  )
)
(assert
  (forall ( (A Int) (B Int) (C Int) (D Int) (E Int) (F Int) (G Int) (H Int) (I Int) (J Int) (K Int) (L Int) (M Int) (N Int) (O Int) (P Int) (Q Int) (R Bool) (S Int) (T Int) (U Int) (V Int) (W Int) (X Int) (Y Bool) (Z Int) (A1 Int) (B1 Int) (C1 Int) (D1 Int) (E1 Int) (F1 Int) (G1 Int) (H1 Int) (I1 Int) (J1 Bool) (K1 Int) (L1 Int) (M1 Int) (N1 Int) ) 
    (=>
      (and
        (ULTIMATE.start_L-1
  Z
  B
  C
  D
  A1
  F
  G
  B1
  C1
  J
  D1
  E1
  F1
  N
  G1
  H1
  I1
  J1
  K1
  L1
  M1
  V
  W
  N1
  Y)
        (or Y (and (= A 0) (= K 0) (= P 0)))
      )
      (ULTIMATE.start_L70 A B C D E F G H I J K L M N O P Q R S T U V W X Y)
    )
  )
)
(assert
  (forall ( (A Int) (B Int) (C Int) (D Int) (E Int) (F Int) (G Int) (H Int) (I Int) (J Int) (K Int) (L Int) (M Int) (N Int) (O Int) (P Int) (Q Int) (R Bool) (S Int) (T Int) (U Int) (V Int) (W Int) (X Int) (Y Bool) (Z Int) ) 
    (=>
      (and
        (ULTIMATE.start_L70 A B C D E F G H I J K L Z N O P Q R S T U V W X Y)
        (or Y (and (<= P 2147483647) (<= (- 2147483648) P)))
      )
      (ULTIMATE.start_L76-3 A B C D E F G H I J K L M N O P Q R S T U V W X Y)
    )
  )
)
(assert
  (forall ( (A Int) (B Int) (C Int) (D Int) (E Int) (F Int) (G Int) (H Int) (I Int) (J Int) (K Int) (L Int) (M Int) (N Int) (O Int) (P Int) (Q Int) (R Bool) (S Int) (T Int) (U Int) (V Int) (W Int) (X Int) (Y Bool) ) 
    (=>
      (and
        (ULTIMATE.start_L76-3 A B C D E F G H I J K L M N O P Q R S T U V W X Y)
        (= Y true)
      )
      (ULTIMATE.start_L76-4 A B C D E F G H I J K L M N O P Q R S T U V W X Y)
    )
  )
)
(assert
  (forall ( (A Int) (B Int) (C Int) (D Int) (E Int) (F Int) (G Int) (H Int) (I Int) (J Int) (K Int) (L Int) (M Int) (N Int) (O Int) (P Int) (Q Int) (R Bool) (S Int) (T Int) (U Int) (V Int) (W Int) (X Int) (Y Bool) ) 
    (=>
      (and
        (ULTIMATE.start_L76-3 A B C D E F G H I J K L M N O P Q R S T U V W X Y)
        (or Y (and (<= H 2147483647) (<= (- 2147483648) H)))
      )
      (ULTIMATE.start_L76-1 A B C D E F G H I J K L M N O P Q R S T U V W X Y)
    )
  )
)
(assert
  (forall ( (A Int) (B Int) (C Int) (D Int) (E Int) (F Int) (G Int) (H Int) (I Int) (J Int) (K Int) (L Int) (M Int) (N Int) (O Int) (P Int) (Q Int) (R Bool) (S Int) (T Int) (U Int) (V Int) (W Int) (X Int) (Y Bool) ) 
    (=>
      (and
        (ULTIMATE.start_L76-4 A B C D E F G H I J K L M N O P Q R S T U V W X Y)
        (or Y (= C 1))
      )
      (ULTIMATE.start_L3-4 A B C D E F G H I J K L M N O P Q R S T U V W X Y)
    )
  )
)
(assert
  (forall ( (A Int) (B Int) (C Int) (D Int) (E Int) (F Int) (G Int) (H Int) (I Int) (J Int) (K Int) (L Int) (M Int) (N Int) (O Int) (P Int) (Q Int) (R Bool) (S Int) (T Int) (U Int) (V Int) (W Int) (X Int) (Y Bool) ) 
    (=>
      (and
        (ULTIMATE.start_L76-4 A B C D E F G H I J K L M N O P Q R S T U V W X Y)
        (or Y (not (= C 1)))
      )
      (ULTIMATE.start_L4-4 A B C D E F G H I J K L M N O P Q R S T U V W X Y)
    )
  )
)
(assert
  (forall ( (A Int) (B Int) (C Int) (D Int) (E Int) (F Int) (G Int) (H Int) (I Int) (J Int) (K Int) (L Int) (M Int) (N Int) (O Int) (P Int) (Q Int) (R Bool) (S Int) (T Int) (U Int) (V Int) (W Int) (X Int) (Y Bool) (Z Int) ) 
    (=>
      (and
        (ULTIMATE.start_L76-1 A B C D E F G Z I J K L M N O P Q R S T U V W X Y)
        (or Y (= 0 Z))
      )
      (ULTIMATE.start_L76-4 A B C D E F G H I J K L M N O P Q R S T U V W X Y)
    )
  )
)
(assert
  (forall ( (A Int) (B Int) (C Int) (D Int) (E Int) (F Int) (G Int) (H Int) (I Int) (J Int) (K Int) (L Int) (M Int) (N Int) (O Int) (P Int) (Q Int) (R Bool) (S Int) (T Int) (U Int) (V Int) (W Int) (X Int) (Y Bool) (Z Int) (A1 Bool) ) 
    (=>
      (and
        (ULTIMATE.start_L76-1 A B C D E F G Z I J K L M N O P Q A1 S T U V W X Y)
        (or Y (and (= R (= 0 I)) (<= I 2147483647) (<= (- 2147483648) I) (not (= 0 Z))))
      )
      (ULTIMATE.start_L80 A B C D E F G H I J K L M N O P Q R S T U V W X Y)
    )
  )
)
(assert
  (forall ( (A Int) (B Int) (C Int) (D Int) (E Int) (F Int) (G Int) (H Int) (I Int) (J Int) (K Int) (L Int) (M Int) (N Int) (O Int) (P Int) (Q Int) (R Bool) (S Int) (T Int) (U Int) (V Int) (W Int) (X Int) (Y Bool) (Z Int) ) 
    (=>
      (and
        (ULTIMATE.start_L3-4 A B C D E F G H I J K L M N O P Z R S T U V W X Y)
        (or Y (= Q 0))
      )
      (ULTIMATE.start_L116 A B C D E F G H I J K L M N O P Q R S T U V W X Y)
    )
  )
)
(assert
  (forall ( (A Int) (B Int) (C Int) (D Int) (E Int) (F Int) (G Int) (H Int) (I Int) (J Int) (K Int) (L Int) (M Int) (N Int) (O Int) (P Int) (Q Int) (R Bool) (S Int) (T Int) (U Int) (V Int) (W Int) (X Int) (Y Bool) (Z Bool) ) 
    (=>
      (and
        (ULTIMATE.start_L4-4 A B C D E F G H I J K L M N O P Q R S T U V W X Z)
        (= Y true)
      )
      (ULTIMATE.start_ULTIMATE.startEXIT
  A
  B
  C
  D
  E
  F
  G
  H
  I
  J
  K
  L
  M
  N
  O
  P
  Q
  R
  S
  T
  U
  V
  W
  X
  Y)
    )
  )
)
(assert
  (forall ( (A Int) (B Int) (C Int) (D Int) (E Int) (F Int) (G Int) (H Int) (I Int) (J Int) (K Int) (L Int) (M Int) (N Int) (O Int) (P Int) (Q Int) (R Bool) (S Int) (T Int) (U Int) (V Int) (W Int) (X Int) (Y Bool) ) 
    (=>
      (and
        (ULTIMATE.start_L4-4 A B C D E F G H I J K L M N O P Q R S T U V W X Y)
        (= Y true)
      )
      (ULTIMATE.start_L3-4 A B C D E F G H I J K L M N O P Q R S T U V W X Y)
    )
  )
)
(assert
  (forall ( (A Int) (B Int) (C Int) (D Int) (E Int) (F Int) (G Int) (H Int) (I Int) (J Int) (K Int) (L Int) (M Int) (N Int) (O Int) (P Int) (Q Int) (R Bool) (S Int) (T Int) (U Int) (V Int) (W Int) (X Int) (Y Bool) ) 
    (=>
      (and
        (ULTIMATE.start_L80 A B C D E F G H I J K L M N O P Q R S T U V W X Y)
        (or R Y)
      )
      (ULTIMATE.start_L81 A B C D E F G H I J K L M N O P Q R S T U V W X Y)
    )
  )
)
(assert
  (forall ( (A Int) (B Int) (C Int) (D Int) (E Int) (F Int) (G Int) (H Int) (I Int) (J Int) (K Int) (L Int) (M Int) (N Int) (O Int) (P Int) (Q Int) (R Bool) (S Int) (T Int) (U Int) (V Int) (W Int) (X Int) (Y Bool) (Z Bool) ) 
    (=>
      (and
        (ULTIMATE.start_L80 A B C D E F G H I J K L M N O P Q Z S T U V W X Y)
        (let ((a!1 (or (and R (or Z (= 1 I))) (and (not Z) (not R) (not (= 1 I))))))
  (or Y (and (not Z) a!1)))
      )
      (ULTIMATE.start_L88 A B C D E F G H I J K L M N O P Q R S T U V W X Y)
    )
  )
)
(assert
  (forall ( (A Int) (B Int) (C Int) (D Int) (E Int) (F Int) (G Int) (H Int) (I Int) (J Int) (K Int) (L Int) (M Int) (N Int) (O Int) (P Int) (Q Int) (R Bool) (S Int) (T Int) (U Int) (V Int) (W Int) (X Int) (Y Bool) (Z Int) ) 
    (=>
      (and
        (ULTIMATE.start_L116 A B C D E F G H I J K L M N O P Q R S T U V Z X Y)
        (or Y (= W Q))
      )
      (ULTIMATE.start_ULTIMATE.startFINAL
  A
  B
  C
  D
  E
  F
  G
  H
  I
  J
  K
  L
  M
  N
  O
  P
  Q
  R
  S
  T
  U
  V
  W
  X
  Y)
    )
  )
)
(assert
  (forall ( (A Int) (B Int) (C Int) (D Int) (E Int) (F Int) (G Int) (H Int) (I Int) (J Int) (K Int) (L Int) (M Int) (N Int) (O Int) (P Int) (Q Int) (R Bool) (S Int) (T Int) (U Int) (V Int) (W Int) (X Int) (Y Bool) (Z Int) (A1 Int) ) 
    (=>
      (and
        (ULTIMATE.start_L81 A B C D E F Z H I J K L M A1 O P Q R S T U V W X Y)
        (or Y (and (<= G 2147483647) (<= (- 2147483648) G) (= 0 K)))
      )
      (ULTIMATE.start_L57 A B C D E F G H I J K L M N O P Q R S T U V W X Y)
    )
  )
)
(assert
  (forall ( (A Int) (B Int) (C Int) (D Int) (E Int) (F Int) (G Int) (H Int) (I Int) (J Int) (K Int) (L Int) (M Int) (N Int) (O Int) (P Int) (Q Int) (R Bool) (S Int) (T Int) (U Int) (V Int) (W Int) (X Int) (Y Bool) ) 
    (=>
      (and
        (ULTIMATE.start_L81 A B C D E F G H I J K L M N O P Q R S T U V W X Y)
        (or Y (not (= 0 K)))
      )
      (ULTIMATE.start_L78 A B C D E F G H I J K L M N O P Q R S T U V W X Y)
    )
  )
)
(assert
  (forall ( (A Int) (B Int) (C Int) (D Int) (E Int) (F Int) (G Int) (H Int) (I Int) (J Int) (K Int) (L Int) (M Int) (N Int) (O Int) (P Int) (Q Int) (R Bool) (S Int) (T Int) (U Int) (V Int) (W Int) (X Int) (Y Bool) ) 
    (=>
      (and
        (ULTIMATE.start_L88 A B C D E F G H I J K L M N O P Q R S T U V W X Y)
        (or R Y)
      )
      (ULTIMATE.start_L89 A B C D E F G H I J K L M N O P Q R S T U V W X Y)
    )
  )
)
(assert
  (forall ( (A Int) (B Int) (C Int) (D Int) (E Int) (F Int) (G Int) (H Int) (I Int) (J Int) (K Int) (L Int) (M Int) (N Int) (O Int) (P Int) (Q Int) (R Bool) (S Int) (T Int) (U Int) (V Int) (W Int) (X Int) (Y Bool) (Z Bool) ) 
    (=>
      (and
        (ULTIMATE.start_L88 A B C D E F G H I J K L M N O P Q Z S T U V W X Y)
        (let ((a!1 (or (and R (or Z (= 2 I))) (and (not Z) (not R) (not (= 2 I))))))
  (or Y (and (not Z) a!1)))
      )
      (ULTIMATE.start_L96 A B C D E F G H I J K L M N O P Q R S T U V W X Y)
    )
  )
)
(assert
  (forall ( (A Int) (B Int) (C Int) (D Int) (E Int) (F Int) (G Int) (H Int) (I Int) (J Int) (K Int) (L Int) (M Int) (N Int) (O Int) (P Int) (Q Int) (R Bool) (S Int) (T Int) (U Int) (V Int) (W Int) (X Int) (Y Bool) ) 
    (=>
      (and
        (ULTIMATE.start_ULTIMATE.startFINAL
  A
  B
  C
  D
  E
  F
  G
  H
  I
  J
  K
  L
  M
  N
  O
  P
  Q
  R
  S
  T
  U
  V
  W
  X
  Y)
        true
      )
      (ULTIMATE.start_ULTIMATE.startEXIT
  A
  B
  C
  D
  E
  F
  G
  H
  I
  J
  K
  L
  M
  N
  O
  P
  Q
  R
  S
  T
  U
  V
  W
  X
  Y)
    )
  )
)
(assert
  (forall ( (A Int) (B Int) (C Int) (D Int) (E Int) (F Int) (G Int) (H Int) (I Int) (J Int) (K Int) (L Int) (M Int) (N Int) (O Int) (P Int) (Q Int) (R Bool) (S Int) (T Int) (U Int) (V Int) (W Int) (X Int) (Y Bool) (Z Int) (A1 Int) ) 
    (=>
      (and
        (ULTIMATE.start_L57 A B C D E F Z H I J K L M A1 O P Q R S T U V W X Y)
        (or Y (and (not (= Z 0)) (= N 1)))
      )
      (ULTIMATE.start_L62 A B C D E F G H I J K L M N O P Q R S T U V W X Y)
    )
  )
)
(assert
  (forall ( (A Int) (B Int) (C Int) (D Int) (E Int) (F Int) (G Int) (H Int) (I Int) (J Int) (K Int) (L Int) (M Int) (N Int) (O Int) (P Int) (Q Int) (R Bool) (S Int) (T Int) (U Int) (V Int) (W Int) (X Int) (Y Bool) (Z Int) (A1 Int) (B1 Int) ) 
    (=>
      (and
        (ULTIMATE.start_L57 Z B C D E F A1 H I J K L M B1 O P Q R S T U V W X Y)
        (or Y (and (= A 1) (= A1 0) (= N 0)))
      )
      (ULTIMATE.start_L62 A B C D E F G H I J K L M N O P Q R S T U V W X Y)
    )
  )
)
(assert
  (forall ( (A Int) (B Int) (C Int) (D Int) (E Int) (F Int) (G Int) (H Int) (I Int) (J Int) (K Int) (L Int) (M Int) (N Int) (O Int) (P Int) (Q Int) (R Bool) (S Int) (T Int) (U Int) (V Int) (W Int) (X Int) (Y Bool) (Z Int) (A1 Bool) ) 
    (=>
      (and
        (ULTIMATE.start_L78 A B C D E F G H Z J K L M N O P Q A1 S T U V W X Y)
        true
      )
      (ULTIMATE.start_L76-3 A B C D E F G H I J K L M N O P Q R S T U V W X Y)
    )
  )
)
(assert
  (forall ( (A Int) (B Int) (C Int) (D Int) (E Int) (F Int) (G Int) (H Int) (I Int) (J Int) (K Int) (L Int) (M Int) (N Int) (O Int) (P Int) (Q Int) (R Bool) (S Int) (T Int) (U Int) (V Int) (W Int) (X Int) (Y Bool) (Z Int) ) 
    (=>
      (and
        (ULTIMATE.start_L89 A B C D E F G H I Z K L M N O P Q R S T U V W X Y)
        (or Y (and (= J 0) (= 1 K)))
      )
      (ULTIMATE.start_L52 A B C D E F G H I J K L M N O P Q R S T U V W X Y)
    )
  )
)
(assert
  (forall ( (A Int) (B Int) (C Int) (D Int) (E Int) (F Int) (G Int) (H Int) (I Int) (J Int) (K Int) (L Int) (M Int) (N Int) (O Int) (P Int) (Q Int) (R Bool) (S Int) (T Int) (U Int) (V Int) (W Int) (X Int) (Y Bool) ) 
    (=>
      (and
        (ULTIMATE.start_L89 A B C D E F G H I J K L M N O P Q R S T U V W X Y)
        (or Y (not (= K 1)))
      )
      (ULTIMATE.start_L78 A B C D E F G H I J K L M N O P Q R S T U V W X Y)
    )
  )
)
(assert
  (forall ( (A Int) (B Int) (C Int) (D Int) (E Int) (F Int) (G Int) (H Int) (I Int) (J Int) (K Int) (L Int) (M Int) (N Int) (O Int) (P Int) (Q Int) (R Bool) (S Int) (T Int) (U Int) (V Int) (W Int) (X Int) (Y Bool) ) 
    (=>
      (and
        (ULTIMATE.start_L96 A B C D E F G H I J K L M N O P Q R S T U V W X Y)
        (or R Y)
      )
      (ULTIMATE.start_L97 A B C D E F G H I J K L M N O P Q R S T U V W X Y)
    )
  )
)
(assert
  (forall ( (A Int) (B Int) (C Int) (D Int) (E Int) (F Int) (G Int) (H Int) (I Int) (J Int) (K Int) (L Int) (M Int) (N Int) (O Int) (P Int) (Q Int) (R Bool) (S Int) (T Int) (U Int) (V Int) (W Int) (X Int) (Y Bool) (Z Bool) ) 
    (=>
      (and
        (ULTIMATE.start_L96 A B C D E F G H I J K L M N O P Q Z S T U V W X Y)
        (let ((a!1 (or (and R (or Z (= 3 I))) (and (not Z) (not R) (not (= 3 I))))))
  (or Y (and (not Z) a!1)))
      )
      (ULTIMATE.start_L104 A B C D E F G H I J K L M N O P Q R S T U V W X Y)
    )
  )
)
(assert
  (forall ( (A Int) (B Int) (C Int) (D Int) (E Int) (F Int) (G Int) (H Int) (I Int) (J Int) (K Int) (L Int) (M Int) (N Int) (O Int) (P Int) (Q Int) (R Bool) (S Int) (T Int) (U Int) (V Int) (W Int) (X Int) (Y Bool) (Z Int) (A1 Int) (B1 Int) ) 
    (=>
      (and
        (ULTIMATE.start_L62 A B C D E F G H I J Z A1 M N O P Q R S T U V W B1 Y)
        (or Y (and (<= N 2147483647) (<= (- 2147483648) N) (= Z (+ (- 1) K))))
      )
      (ULTIMATE.start_L78 A B C D E F G H I J K L M N O P Q R S T U V W X Y)
    )
  )
)
(assert
  (forall ( (A Int) (B Int) (C Int) (D Int) (E Int) (F Int) (G Int) (H Int) (I Int) (J Int) (K Int) (L Int) (M Int) (N Int) (O Int) (P Int) (Q Int) (R Bool) (S Int) (T Int) (U Int) (V Int) (W Int) (X Int) (Y Bool) (Z Int) (A1 Int) (B1 Int) ) 
    (=>
      (and
        (ULTIMATE.start_L52 A B C D E F G H I J Z L M N A1 P Q R S T B1 V W X Y)
        (or Y (and (<= J 2147483647) (<= (- 2147483648) J) (= Z (+ (- 1) K))))
      )
      (ULTIMATE.start_L78 A B C D E F G H I J K L M N O P Q R S T U V W X Y)
    )
  )
)
(assert
  (forall ( (A Int) (B Int) (C Int) (D Int) (E Int) (F Int) (G Int) (H Int) (I Int) (J Int) (K Int) (L Int) (M Int) (N Int) (O Int) (P Int) (Q Int) (R Bool) (S Int) (T Int) (U Int) (V Int) (W Int) (X Int) (Y Bool) (Z Int) ) 
    (=>
      (and
        (ULTIMATE.start_L97 A B C D E Z G H I J K L M N O P Q R S T U V W X Y)
        (or Y (and (= K 2) (= F 0)))
      )
      (ULTIMATE.start_L48 A B C D E F G H I J K L M N O P Q R S T U V W X Y)
    )
  )
)
(assert
  (forall ( (A Int) (B Int) (C Int) (D Int) (E Int) (F Int) (G Int) (H Int) (I Int) (J Int) (K Int) (L Int) (M Int) (N Int) (O Int) (P Int) (Q Int) (R Bool) (S Int) (T Int) (U Int) (V Int) (W Int) (X Int) (Y Bool) ) 
    (=>
      (and
        (ULTIMATE.start_L97 A B C D E F G H I J K L M N O P Q R S T U V W X Y)
        (or Y (not (= K 2)))
      )
      (ULTIMATE.start_L78 A B C D E F G H I J K L M N O P Q R S T U V W X Y)
    )
  )
)
(assert
  (forall ( (A Int) (B Int) (C Int) (D Int) (E Int) (F Int) (G Int) (H Int) (I Int) (J Int) (K Int) (L Int) (M Int) (N Int) (O Int) (P Int) (Q Int) (R Bool) (S Int) (T Int) (U Int) (V Int) (W Int) (X Int) (Y Bool) ) 
    (=>
      (and
        (ULTIMATE.start_L104 A B C D E F G H I J K L M N O P Q R S T U V W X Y)
        (or R Y)
      )
      (ULTIMATE.start_L105 A B C D E F G H I J K L M N O P Q R S T U V W X Y)
    )
  )
)
(assert
  (forall ( (A Int) (B Int) (C Int) (D Int) (E Int) (F Int) (G Int) (H Int) (I Int) (J Int) (K Int) (L Int) (M Int) (N Int) (O Int) (P Int) (Q Int) (R Bool) (S Int) (T Int) (U Int) (V Int) (W Int) (X Int) (Y Bool) (Z Bool) ) 
    (=>
      (and
        (ULTIMATE.start_L104 A B C D E F G H I J K L M N O P Q Z S T U V W X Y)
        (or Y (and (not Z) R))
      )
      (ULTIMATE.start_L112 A B C D E F G H I J K L M N O P Q R S T U V W X Y)
    )
  )
)
(assert
  (forall ( (A Int) (B Int) (C Int) (D Int) (E Int) (F Int) (G Int) (H Int) (I Int) (J Int) (K Int) (L Int) (M Int) (N Int) (O Int) (P Int) (Q Int) (R Bool) (S Int) (T Int) (U Int) (V Int) (W Int) (X Int) (Y Bool) (Z Int) (A1 Int) (B1 Int) ) 
    (=>
      (and
        (ULTIMATE.start_L48 A B C D Z F G H I J A1 L M N O P Q R S B1 U V W X Y)
        (or Y (and (<= F 2147483647) (<= (- 2147483648) F) (= A1 (+ (- 1) K))))
      )
      (ULTIMATE.start_L78 A B C D E F G H I J K L M N O P Q R S T U V W X Y)
    )
  )
)
(assert
  (forall ( (A Int) (B Int) (C Int) (D Int) (E Int) (F Int) (G Int) (H Int) (I Int) (J Int) (K Int) (L Int) (M Int) (N Int) (O Int) (P Int) (Q Int) (R Bool) (S Int) (T Int) (U Int) (V Int) (W Int) (X Int) (Y Bool) (Z Int) ) 
    (=>
      (and
        (ULTIMATE.start_L105 A B C D E F G H I J K L M N O P Q R S T U Z W X Y)
        (or Y (= K 3))
      )
      (ULTIMATE.start_L34 A B C D E F G H I J K L M N O P Q R S T U V W X Y)
    )
  )
)
(assert
  (forall ( (A Int) (B Int) (C Int) (D Int) (E Int) (F Int) (G Int) (H Int) (I Int) (J Int) (K Int) (L Int) (M Int) (N Int) (O Int) (P Int) (Q Int) (R Bool) (S Int) (T Int) (U Int) (V Int) (W Int) (X Int) (Y Bool) ) 
    (=>
      (and
        (ULTIMATE.start_L105 A B C D E F G H I J K L M N O P Q R S T U V W X Y)
        (or Y (not (= K 3)))
      )
      (ULTIMATE.start_L78 A B C D E F G H I J K L M N O P Q R S T U V W X Y)
    )
  )
)
(assert
  (forall ( (A Int) (B Int) (C Int) (D Int) (E Int) (F Int) (G Int) (H Int) (I Int) (J Int) (K Int) (L Int) (M Int) (N Int) (O Int) (P Int) (Q Int) (R Bool) (S Int) (T Int) (U Int) (V Int) (W Int) (X Int) (Y Bool) ) 
    (=>
      (and
        (ULTIMATE.start_L112 A B C D E F G H I J K L M N O P Q R S T U V W X Y)
        (or R Y)
      )
      (ULTIMATE.start_L78 A B C D E F G H I J K L M N O P Q R S T U V W X Y)
    )
  )
)
(assert
  (forall ( (A Int) (B Int) (C Int) (D Int) (E Int) (F Int) (G Int) (H Int) (I Int) (J Int) (K Int) (L Int) (M Int) (N Int) (O Int) (P Int) (Q Int) (R Bool) (S Int) (T Int) (U Int) (V Int) (W Int) (X Int) (Y Bool) ) 
    (=>
      (and
        (ULTIMATE.start_L112 A B C D E F G H I J K L M N O P Q R S T U V W X Y)
        (or (not R) Y)
      )
      (ULTIMATE.start_L78 A B C D E F G H I J K L M N O P Q R S T U V W X Y)
    )
  )
)
(assert
  (forall ( (A Int) (B Int) (C Int) (D Int) (E Int) (F Int) (G Int) (H Int) (I Int) (J Int) (K Int) (L Int) (M Int) (N Int) (O Int) (P Int) (Q Int) (R Bool) (S Int) (T Int) (U Int) (V Int) (W Int) (X Int) (Y Bool) ) 
    (=>
      (and
        (ULTIMATE.start_L34 A B C D E F G H I J K L M N O P Q R S T U V W X Y)
        (or Y (not (= 0 A)))
      )
      (ULTIMATE.start_L16 A B C D E F G H I J K L M N O P Q R S T U V W X Y)
    )
  )
)
(assert
  (forall ( (A Int) (B Int) (C Int) (D Int) (E Int) (F Int) (G Int) (H Int) (I Int) (J Int) (K Int) (L Int) (M Int) (N Int) (O Int) (P Int) (Q Int) (R Bool) (S Int) (T Int) (U Int) (V Int) (W Int) (X Int) (Y Bool) ) 
    (=>
      (and
        (ULTIMATE.start_L34 A B C D E F G H I J K L M N O P Q R S T U V W X Y)
        (or Y (= 0 A))
      )
      (ULTIMATE.start_L16-2 A B C D E F G H I J K L M N O P Q R S T U V W X Y)
    )
  )
)
(assert
  (forall ( (A Int) (B Int) (C Int) (D Int) (E Int) (F Int) (G Int) (H Int) (I Int) (J Int) (K Int) (L Int) (M Int) (N Int) (O Int) (P Int) (Q Int) (R Bool) (S Int) (T Int) (U Int) (V Int) (W Int) (X Int) (Y Bool) ) 
    (=>
      (and
        (ULTIMATE.start_L16 A B C D E F G H I J K L M N O P Q R S T U V W X Y)
        (or Y (= C 1))
      )
      (ULTIMATE.start_L3 A B C D E F G H I J K L M N O P Q R S T U V W X Y)
    )
  )
)
(assert
  (forall ( (A Int) (B Int) (C Int) (D Int) (E Int) (F Int) (G Int) (H Int) (I Int) (J Int) (K Int) (L Int) (M Int) (N Int) (O Int) (P Int) (Q Int) (R Bool) (S Int) (T Int) (U Int) (V Int) (W Int) (X Int) (Y Bool) ) 
    (=>
      (and
        (ULTIMATE.start_L16 A B C D E F G H I J K L M N O P Q R S T U V W X Y)
        (or Y (not (= C 1)))
      )
      (ULTIMATE.start_L4 A B C D E F G H I J K L M N O P Q R S T U V W X Y)
    )
  )
)
(assert
  (forall ( (A Int) (B Int) (C Int) (D Int) (E Int) (F Int) (G Int) (H Int) (I Int) (J Int) (K Int) (L Int) (M Int) (N Int) (O Int) (P Int) (Q Int) (R Bool) (S Int) (T Int) (U Int) (V Int) (W Int) (X Int) (Y Bool) ) 
    (=>
      (and
        (ULTIMATE.start_L16-2 A B C D E F G H I J K L M N O P Q R S T U V W X Y)
        (or Y (= C 1))
      )
      (ULTIMATE.start_L3-2 A B C D E F G H I J K L M N O P Q R S T U V W X Y)
    )
  )
)
(assert
  (forall ( (A Int) (B Int) (C Int) (D Int) (E Int) (F Int) (G Int) (H Int) (I Int) (J Int) (K Int) (L Int) (M Int) (N Int) (O Int) (P Int) (Q Int) (R Bool) (S Int) (T Int) (U Int) (V Int) (W Int) (X Int) (Y Bool) ) 
    (=>
      (and
        (ULTIMATE.start_L16-2 A B C D E F G H I J K L M N O P Q R S T U V W X Y)
        (or Y (not (= C 1)))
      )
      (ULTIMATE.start_L4-2 A B C D E F G H I J K L M N O P Q R S T U V W X Y)
    )
  )
)
(assert
  (forall ( (A Int) (B Int) (C Int) (D Int) (E Int) (F Int) (G Int) (H Int) (I Int) (J Int) (K Int) (L Int) (M Int) (N Int) (O Int) (P Int) (Q Int) (R Bool) (S Int) (T Int) (U Int) (V Int) (W Int) (X Int) (Y Bool) (Z Int) ) 
    (=>
      (and
        (ULTIMATE.start_L3 A B Z D E F G H I J K L M N O P Q R S T U V W X Y)
        (or Y (= C 2))
      )
      (ULTIMATE.start_L14 A B C D E F G H I J K L M N O P Q R S T U V W X Y)
    )
  )
)
(assert
  (forall ( (A Int) (B Int) (C Int) (D Int) (E Int) (F Int) (G Int) (H Int) (I Int) (J Int) (K Int) (L Int) (M Int) (N Int) (O Int) (P Int) (Q Int) (R Bool) (S Int) (T Int) (U Int) (V Int) (W Int) (X Int) (Y Bool) (Z Bool) ) 
    (=>
      (and
        (ULTIMATE.start_L4 A B C D E F G H I J K L M N O P Q R S T U V W X Z)
        (= Y true)
      )
      (ULTIMATE.start_ULTIMATE.startEXIT
  A
  B
  C
  D
  E
  F
  G
  H
  I
  J
  K
  L
  M
  N
  O
  P
  Q
  R
  S
  T
  U
  V
  W
  X
  Y)
    )
  )
)
(assert
  (forall ( (A Int) (B Int) (C Int) (D Int) (E Int) (F Int) (G Int) (H Int) (I Int) (J Int) (K Int) (L Int) (M Int) (N Int) (O Int) (P Int) (Q Int) (R Bool) (S Int) (T Int) (U Int) (V Int) (W Int) (X Int) (Y Bool) ) 
    (=>
      (and
        (ULTIMATE.start_L4 A B C D E F G H I J K L M N O P Q R S T U V W X Y)
        (= Y true)
      )
      (ULTIMATE.start_L3 A B C D E F G H I J K L M N O P Q R S T U V W X Y)
    )
  )
)
(assert
  (forall ( (A Int) (B Int) (C Int) (D Int) (E Int) (F Int) (G Int) (H Int) (I Int) (J Int) (K Int) (L Int) (M Int) (N Int) (O Int) (P Int) (Q Int) (R Bool) (S Int) (T Int) (U Int) (V Int) (W Int) (X Int) (Y Bool) (Z Int) ) 
    (=>
      (and
        (ULTIMATE.start_L3-2 A B Z D E F G H I J K L M N O P Q R S T U V W X Y)
        (or Y (= C 2))
      )
      (ULTIMATE.start_L14-1 A B C D E F G H I J K L M N O P Q R S T U V W X Y)
    )
  )
)
(assert
  (forall ( (A Int) (B Int) (C Int) (D Int) (E Int) (F Int) (G Int) (H Int) (I Int) (J Int) (K Int) (L Int) (M Int) (N Int) (O Int) (P Int) (Q Int) (R Bool) (S Int) (T Int) (U Int) (V Int) (W Int) (X Int) (Y Bool) (Z Bool) ) 
    (=>
      (and
        (ULTIMATE.start_L4-2 A B C D E F G H I J K L M N O P Q R S T U V W X Z)
        (= Y true)
      )
      (ULTIMATE.start_ULTIMATE.startEXIT
  A
  B
  C
  D
  E
  F
  G
  H
  I
  J
  K
  L
  M
  N
  O
  P
  Q
  R
  S
  T
  U
  V
  W
  X
  Y)
    )
  )
)
(assert
  (forall ( (A Int) (B Int) (C Int) (D Int) (E Int) (F Int) (G Int) (H Int) (I Int) (J Int) (K Int) (L Int) (M Int) (N Int) (O Int) (P Int) (Q Int) (R Bool) (S Int) (T Int) (U Int) (V Int) (W Int) (X Int) (Y Bool) ) 
    (=>
      (and
        (ULTIMATE.start_L4-2 A B C D E F G H I J K L M N O P Q R S T U V W X Y)
        (= Y true)
      )
      (ULTIMATE.start_L3-2 A B C D E F G H I J K L M N O P Q R S T U V W X Y)
    )
  )
)
(assert
  (forall ( (A Int) (B Int) (C Int) (D Int) (E Int) (F Int) (G Int) (H Int) (I Int) (J Int) (K Int) (L Int) (M Int) (N Int) (O Int) (P Int) (Q Int) (R Bool) (S Int) (T Int) (U Int) (V Int) (W Int) (X Int) (Y Bool) ) 
    (=>
      (and
        (ULTIMATE.start_L14 A B C D E F G H I J K L M N O P Q R S T U V W X Y)
        (or Y (= C 2))
      )
      (ULTIMATE.start_L3-1 A B C D E F G H I J K L M N O P Q R S T U V W X Y)
    )
  )
)
(assert
  (forall ( (A Int) (B Int) (C Int) (D Int) (E Int) (F Int) (G Int) (H Int) (I Int) (J Int) (K Int) (L Int) (M Int) (N Int) (O Int) (P Int) (Q Int) (R Bool) (S Int) (T Int) (U Int) (V Int) (W Int) (X Int) (Y Bool) ) 
    (=>
      (and
        (ULTIMATE.start_L14 A B C D E F G H I J K L M N O P Q R S T U V W X Y)
        (or Y (not (= C 2)))
      )
      (ULTIMATE.start_L4-1 A B C D E F G H I J K L M N O P Q R S T U V W X Y)
    )
  )
)
(assert
  (forall ( (A Int) (B Int) (C Int) (D Int) (E Int) (F Int) (G Int) (H Int) (I Int) (J Int) (K Int) (L Int) (M Int) (N Int) (O Int) (P Int) (Q Int) (R Bool) (S Int) (T Int) (U Int) (V Int) (W Int) (X Int) (Y Bool) ) 
    (=>
      (and
        (ULTIMATE.start_L14-1 A B C D E F G H I J K L M N O P Q R S T U V W X Y)
        (or Y (= C 1))
      )
      (ULTIMATE.start_L3-3 A B C D E F G H I J K L M N O P Q R S T U V W X Y)
    )
  )
)
(assert
  (forall ( (A Int) (B Int) (C Int) (D Int) (E Int) (F Int) (G Int) (H Int) (I Int) (J Int) (K Int) (L Int) (M Int) (N Int) (O Int) (P Int) (Q Int) (R Bool) (S Int) (T Int) (U Int) (V Int) (W Int) (X Int) (Y Bool) ) 
    (=>
      (and
        (ULTIMATE.start_L14-1 A B C D E F G H I J K L M N O P Q R S T U V W X Y)
        (or Y (not (= C 1)))
      )
      (ULTIMATE.start_L4-3 A B C D E F G H I J K L M N O P Q R S T U V W X Y)
    )
  )
)
(assert
  (forall ( (A Int) (B Int) (C Int) (D Int) (E Int) (F Int) (G Int) (H Int) (I Int) (J Int) (K Int) (L Int) (M Int) (N Int) (O Int) (P Int) (Q Int) (R Bool) (S Int) (T Int) (U Int) (V Int) (W Int) (X Int) (Y Bool) (Z Int) ) 
    (=>
      (and
        (ULTIMATE.start_L3-1 A B Z D E F G H I J K L M N O P Q R S T U V W X Y)
        (or Y (= C 1))
      )
      (ULTIMATE.start_L20 A B C D E F G H I J K L M N O P Q R S T U V W X Y)
    )
  )
)
(assert
  (forall ( (A Int) (B Int) (C Int) (D Int) (E Int) (F Int) (G Int) (H Int) (I Int) (J Int) (K Int) (L Int) (M Int) (N Int) (O Int) (P Int) (Q Int) (R Bool) (S Int) (T Int) (U Int) (V Int) (W Int) (X Int) (Y Bool) (Z Bool) ) 
    (=>
      (and
        (ULTIMATE.start_L4-1 A B C D E F G H I J K L M N O P Q R S T U V W X Z)
        (= Y true)
      )
      (ULTIMATE.start_ULTIMATE.startEXIT
  A
  B
  C
  D
  E
  F
  G
  H
  I
  J
  K
  L
  M
  N
  O
  P
  Q
  R
  S
  T
  U
  V
  W
  X
  Y)
    )
  )
)
(assert
  (forall ( (A Int) (B Int) (C Int) (D Int) (E Int) (F Int) (G Int) (H Int) (I Int) (J Int) (K Int) (L Int) (M Int) (N Int) (O Int) (P Int) (Q Int) (R Bool) (S Int) (T Int) (U Int) (V Int) (W Int) (X Int) (Y Bool) ) 
    (=>
      (and
        (ULTIMATE.start_L4-1 A B C D E F G H I J K L M N O P Q R S T U V W X Y)
        (= Y true)
      )
      (ULTIMATE.start_L3-1 A B C D E F G H I J K L M N O P Q R S T U V W X Y)
    )
  )
)
(assert
  (forall ( (A Int) (B Int) (C Int) (D Int) (E Int) (F Int) (G Int) (H Int) (I Int) (J Int) (K Int) (L Int) (M Int) (N Int) (O Int) (P Int) (Q Int) (R Bool) (S Int) (T Int) (U Int) (V Int) (W Int) (X Int) (Y Bool) (Z Int) ) 
    (=>
      (and
        (ULTIMATE.start_L3-3 A B Z D E F G H I J K L M N O P Q R S T U V W X Y)
        (or Y (= C 2))
      )
      (ULTIMATE.start_L14-2 A B C D E F G H I J K L M N O P Q R S T U V W X Y)
    )
  )
)
(assert
  (forall ( (A Int) (B Int) (C Int) (D Int) (E Int) (F Int) (G Int) (H Int) (I Int) (J Int) (K Int) (L Int) (M Int) (N Int) (O Int) (P Int) (Q Int) (R Bool) (S Int) (T Int) (U Int) (V Int) (W Int) (X Int) (Y Bool) (Z Bool) ) 
    (=>
      (and
        (ULTIMATE.start_L4-3 A B C D E F G H I J K L M N O P Q R S T U V W X Z)
        (= Y true)
      )
      (ULTIMATE.start_ULTIMATE.startEXIT
  A
  B
  C
  D
  E
  F
  G
  H
  I
  J
  K
  L
  M
  N
  O
  P
  Q
  R
  S
  T
  U
  V
  W
  X
  Y)
    )
  )
)
(assert
  (forall ( (A Int) (B Int) (C Int) (D Int) (E Int) (F Int) (G Int) (H Int) (I Int) (J Int) (K Int) (L Int) (M Int) (N Int) (O Int) (P Int) (Q Int) (R Bool) (S Int) (T Int) (U Int) (V Int) (W Int) (X Int) (Y Bool) ) 
    (=>
      (and
        (ULTIMATE.start_L4-3 A B C D E F G H I J K L M N O P Q R S T U V W X Y)
        (= Y true)
      )
      (ULTIMATE.start_L3-3 A B C D E F G H I J K L M N O P Q R S T U V W X Y)
    )
  )
)
(assert
  (forall ( (A Int) (B Int) (C Int) (D Int) (E Int) (F Int) (G Int) (H Int) (I Int) (J Int) (K Int) (L Int) (M Int) (N Int) (O Int) (P Int) (Q Int) (R Bool) (S Int) (T Int) (U Int) (V Int) (W Int) (X Int) (Y Bool) (Z Int) ) 
    (=>
      (and
        (ULTIMATE.start_L20 Z B C D E F G H I J K L M N O P Q R S T U V W X Y)
        (or Y (= A 0))
      )
      (ULTIMATE.start_L14-2 A B C D E F G H I J K L M N O P Q R S T U V W X Y)
    )
  )
)
(assert
  (forall ( (A Int) (B Int) (C Int) (D Int) (E Int) (F Int) (G Int) (H Int) (I Int) (J Int) (K Int) (L Int) (M Int) (N Int) (O Int) (P Int) (Q Int) (R Bool) (S Int) (T Int) (U Int) (V Int) (W Int) (X Int) (Y Bool) (Z Int) ) 
    (=>
      (and
        (ULTIMATE.start_L14-2 A B C D E F G H I J K L M N O P Q R S T U Z W X Y)
        (or Y (= V 0))
      )
      (ULTIMATE.start_L44 A B C D E F G H I J K L M N O P Q R S T U V W X Y)
    )
  )
)
(assert
  (forall ( (A Int) (B Int) (C Int) (D Int) (E Int) (F Int) (G Int) (H Int) (I Int) (J Int) (K Int) (L Int) (M Int) (N Int) (O Int) (P Int) (Q Int) (R Bool) (S Int) (T Int) (U Int) (V Int) (W Int) (X Int) (Y Bool) (Z Int) (A1 Int) ) 
    (=>
      (and
        (ULTIMATE.start_L44 A B C D E F G H I J Z L M N O P Q R A1 T U V W X Y)
        (or Y (and (<= V 2147483647) (<= (- 2147483648) V) (= K 0)))
      )
      (ULTIMATE.start_L78 A B C D E F G H I J K L M N O P Q R S T U V W X Y)
    )
  )
)
(assert
  (forall ( (A Int) (B Int) (C Int) (D Int) (E Int) (F Int) (G Int) (H Int) (I Int) (J Int) (K Int) (L Int) (M Int) (N Int) (O Int) (P Int) (Q Int) (R Bool) (S Int) (T Int) (U Int) (V Int) (W Int) (X Int) (Y Bool) ) 
    (=>
      (and
        (and (= A B) (not Y) (= D C))
      )
      (ULTIMATE.start_ULTIMATE.startENTRY
  A
  B
  C
  D
  E
  F
  G
  H
  I
  J
  K
  L
  M
  N
  O
  P
  Q
  R
  S
  T
  U
  V
  W
  X
  Y)
    )
  )
)
(assert
  (forall ( (A Int) (B Int) (C Int) (D Int) (E Int) (F Int) (G Int) (H Int) (I Int) (J Int) (K Int) (L Int) (M Int) (N Int) (O Int) (P Int) (Q Int) (R Bool) (S Int) (T Int) (U Int) (V Int) (W Int) (X Int) (Y Bool) ) 
    (=>
      (and
        (ULTIMATE.start_ULTIMATE.startEXIT
  A
  B
  C
  D
  E
  F
  G
  H
  I
  J
  K
  L
  M
  N
  O
  P
  Q
  R
  S
  T
  U
  V
  W
  X
  Y)
        (= Y true)
      )
      false
    )
  )
)

(check-sat)
(exit)
